prioritizeEnum/t20/synthesized.patch.sygus.output
(define-fun f_68-13-68-36 ((MC_741360 Bool)) Bool
    (= 0 0))
